VRPTWMS/instances/mip/fuel_F5/Comparison/N4-C_DV100-C_SV25_F5_7_No_1.log

Gurobi 6.0.4 (win64) logging started 06/18/15 17:35:55

Read LP format model from file E:\Eigene Dateien\Downloads\Michi shit\VRPTWMS2\instances\mip\fuel\N4-C_DV100-C_SV25_F5_7_No_1.lp
Reading time = 0.00 seconds
(null): 129 rows, 72 columns, 447 nonzeros
Optimize a model with 129 rows, 72 columns and 447 nonzeros
Model has 64 quadratic constraints
Coefficient statistics:
  Matrix range    [1e+00, 1e+06]
  Objective range [7e+04, 1e+07]
  Bounds range    [1e+00, 1e+06]
  RHS range       [1e+00, 1e+06]
Presolve removed 33 rows and 20 columns
Presolve time: 0.00s
Presolved: 184 rows, 96 columns, 817 nonzeros
Variable types: 44 continuous, 52 integer (38 binary)
Found heuristic solution: objective 2.128140e+07

Root relaxation: objective 2.091830e+07, 20 iterations, 0.00 seconds

    Nodes    |    Current Node    |     Objective Bounds      |     Work
 Expl Unexpl |  Obj  Depth IntInf | Incumbent    BestBd   Gap | It/Node Time

*    0     0               0    2.091830e+07 2.0918e+07  0.00%     -    0s

Explored 0 nodes (20 simplex iterations) in 0.00 seconds
Thread count was 4 (of 4 available processors)

Optimal solution found (tolerance 1.00e-04)
Best objective 2.091830000000e+07, best bound 2.091830000000e+07, gap 0.0%
k_c1	60000.0
k_c2	159999.99999999988
k_c3	89999.9999999999
k_c4	50000.0
k_dN	-0.0
o_1	-0.0
o_2	-0.0
o_3	-0.0
o_4	-0.0
p_1	-0.0
p_2	-0.0
p_3	-0.0
p_4	-0.0
phi_c1	5981.0
phi_c2	33596.000000000015
phi_c3	27428.00000000002
phi_c4	22171.0
phi_d0	50000.0
phi_dN	-0.0
tauD_c1	250000.0
tauD_c2	100000.0
tauD_c3	183050.0
tauD_c4	300725.0
tauD_d0	-0.0
tauD_dN	1000000.0
tauS_c1	-0.0
tauS_c2	-0.0
tauS_c3	-0.0
tauS_c4	-0.0
tauS_d0	-0.0
tauS_dN	-0.0
x_c1_dN	1.0
x_c2_c3	1.0
x_c3_c4	1.0
x_c4_dN	1.0
x_d0_c1	1.0
x_d0_c2	1.0
